branch-and-cut/resultados/C/c11.sol
32.0
14
45 113
45 84
57 194
84 437
84 466
84 318
113 194
113 222
124 318
124 298
159 222
159 166
166 382
255 466
