branch-and-cut/resultados/C/c11.log
Set parameter Username
Academic license - for non-commercial use only - expires 2024-12-10
Set parameter LazyConstraints to value 1
Set parameter TimeLimit to value 600
Gurobi Optimizer version 10.0.0 build v10.0.0rc2 (linux64)

CPU model: Intel(R) Core(TM) i5-4590 CPU @ 3.30GHz, instruction set [SSE2|AVX|AVX2]
Thread count: 4 physical cores, 4 logical processors, using up to 4 threads

Optimize a model with 10005 rows, 2500 columns and 10048 nonzeros
Model fingerprint: 0xfbfb2dd4
Variable types: 0 continuous, 2500 integer (2500 binary)
Coefficient statistics:
  Matrix range     [1e+00, 1e+00]
  Objective range  [1e+00, 1e+01]
  Bounds range     [1e+00, 1e+00]
  RHS range        [1e+00, 1e+00]
Presolve removed 10000 rows and 0 columns
Presolve time: 0.00s
Presolved: 5 rows, 2500 columns, 48 nonzeros
Variable types: 0 continuous, 2500 integer (2500 binary)

Root relaxation: objective 1.100000e+01, 6 iterations, 0.00 seconds (0.00 work units)

    Nodes    |    Current Node    |     Objective Bounds      |     Work
 Expl Unexpl |  Obj  Depth IntInf | Incumbent    BestBd   Gap | It/Node Time

     0     0   11.00000    0    -          -   11.00000      -     -    1s
     0     0   12.00000    0    -          -   12.00000      -     -    2s
     0     0   12.00000    0    -          -   12.00000      -     -    2s
     0     0   13.00000    0    -          -   13.00000      -     -    2s
     0     0   13.00000    0    -          -   13.00000      -     -    3s
     0     0   13.00000    0    -          -   13.00000      -     -    3s
     0     0   13.00000    0    -          -   13.00000      -     -    3s
     0     0   14.00000    0    -          -   14.00000      -     -    4s
     0     0   15.00000    0    -          -   15.00000      -     -    4s
     0     0   15.00000    0    -          -   15.00000      -     -    5s
     0     0   15.00000    0    -          -   15.00000      -     -    5s
     0     0   15.00000    0    -          -   15.00000      -     -    5s
     0     0   16.00000    0    -          -   16.00000      -     -    6s
     0     0   16.00000    0    -          -   16.00000      -     -    6s
     0     0   16.00000    0    -          -   16.00000      -     -    6s
     0     0   16.00000    0    -          -   16.00000      -     -    7s
     0     0   16.00000    0    -          -   16.00000      -     -    7s
     0     0   16.00000    0    -          -   16.00000      -     -    7s
     0     0   16.00000    0    -          -   16.00000      -     -    8s
     0     0   16.00000    0    -          -   16.00000      -     -    8s
     0     0   16.00000    0    7          -   16.00000      -     -    8s
     0     0   18.00000    0    -          -   18.00000      -     -    9s
     0     0   19.00000    0    -          -   19.00000      -     -    9s
     0     0   19.00000    0    -          -   19.00000      -     -   10s
     0     0   19.00000    0    -          -   19.00000      -     -   10s
H    0     0                      70.0000000   19.00000  72.9%     -   10s
     0     0   19.00000    0    3   70.00000   19.00000  72.9%     -   10s
     0     0   19.00000    0    3   70.00000   19.00000  72.9%     -   18s
     0     0   19.00000    0    3   70.00000   19.00000  72.9%     -   23s
     0     2   19.57143    0   13   70.00000   19.57143  72.0%     -   24s
    15    19   23.50000    4    7   70.00000   21.60000  69.1%  13.2   25s
H   24    31                      57.0000000   21.60000  62.1%  16.0   27s
    71    65   23.94286    6   25   57.00000   21.61538  62.1%  10.3   34s
    87    74   25.25000   10    9   57.00000   21.61538  62.1%   9.5   35s
   167   125   27.00000    9    -   57.00000   21.61538  62.1%   6.8   48s
   231   159   26.00000    9    6   57.00000   23.53571  58.7%   6.6   55s
   335   227   29.00000   21    -   57.00000   23.75000  58.3%   6.0   69s
   403   290   28.00000   15    -   57.00000   24.00000  57.9%   5.8   76s
   466   309   26.00000   11    -   57.00000   24.58696  56.9%   5.7   83s
   486   320   27.00000   18    -   57.00000   24.66667  56.7%   5.7   85s
   571   373   27.80000   14   15   57.00000   24.75000  56.6%   5.7   96s
   687   436   31.00000   24    -   57.00000   25.00000  56.1%   5.5  109s
   827   554   28.00000   13    -   57.00000   25.00000  56.1%   5.4  127s
H  955   601                      53.0000000   25.00000  52.8%   5.5  142s
   997   669   26.66667   11    9   53.00000   25.00000  52.8%   5.4  146s
H 1095   707                      52.0000000   25.08333  51.8%   5.5  158s
  1157   779   28.47619   15   18   52.00000   25.33333  51.3%   5.5  161s
  1345   860   27.35714    9   14   52.00000   25.45000  51.1%   5.4  183s
  1391   947   27.62500   13   16   52.00000   25.51220  50.9%   5.4  187s
  1569  1054   27.33333    9   12   52.00000   25.71429  50.5%   5.3  207s
  1733  1144   26.97761   11   26   52.00000   25.77778  50.4%   5.3  222s
  1888  1247   27.52941   11   14   52.00000   26.00000  50.0%   5.2  237s
  2059  1344   30.00000   26    -   52.00000   26.00000  50.0%   5.2  259s
  2202  1418   27.00000   13    -   52.00000   26.00000  50.0%   5.3  274s
  2327  1504   27.04669   17   36   52.00000   26.00000  50.0%   5.3  290s
  2464  1584   30.00000   16    -   52.00000   26.00000  50.0%   5.3  303s
  2616  1677   30.00000    9   12   52.00000   26.00000  50.0%   5.3  320s
  2719  1751   28.38462   11   18   52.00000   26.10448  49.8%   5.4  332s
  2857  1823   27.44444   14   25   52.00000   26.12500  49.8%   5.4  347s
  2949  1894   28.66667   27    8   52.00000   26.21429  49.6%   5.4  356s
H 2960  1898                      45.0000000   26.21429  41.7%   5.4  359s
  3108  1956   27.00000    9    3   45.00000   26.25000  41.7%   5.4  376s
  3111  1958   28.00000   13   40   45.00000   26.25000  41.7%   5.4  380s
H 3121  1965                      33.0000000   26.81658  18.7%   5.4  385s
  3128  1971   27.60000   20   27   33.00000   26.91667  18.4%   5.6  391s
  3144  1982   28.45543   11   45   33.00000   28.45543  13.8%   5.6  398s
  3159  1997   28.45543   26   53   33.00000   28.45543  13.8%   6.0  400s
  3219  2031   29.15377   32   41   33.00000   28.87941  12.5%   7.0  406s
  3257  2050   30.29794   34   38   33.00000   28.87941  12.5%   7.3  410s
  3321  2046     cutoff   31        33.00000   28.87941  12.5%   7.9  415s
H 3341  2054                      32.0000000   28.87941  9.75%   8.0  417s
  3376  2039   30.52952   34   26   32.00000   29.26464  8.55%   8.3  420s
  3462  2048   29.96469   31   61   32.00000   29.46207  7.93%   9.0  425s
  3516  2035   30.88427   36   36   32.00000   29.55074  7.65%   9.3  430s
  3606  2002     cutoff   35        32.00000   29.83929  6.75%  10.1  436s
  3657  1987     cutoff   34        32.00000   29.97124  6.34%  10.4  440s

Cutting planes:
  User: 412
  Gomory: 2
  MIR: 3
  StrongCG: 1
  Flow cover: 29
  Zero half: 16
  Lazy constraints: 63

Explored 3888 nodes (44744 simplex iterations) in 444.89 seconds (6.66 work units)
Thread count was 4 (of 4 available processors)

Solution count 7: 32 33 45 ... 70

Optimal solution found (tolerance 1.00e-04)
Best objective 3.200000000000e+01, best bound 3.200000000000e+01, gap 0.0000%

User-callback calls 11141, time in user-callback 438.52 sec
